db/data/34841415842812756724109249601678923753.z3.out
-------------------
2500.322303811
